NAME : n100w20.005.774.tour
COMMENT : Length = 774
COMMENT : Found by LKH [Keld Helsgaun] Tue May  2 05:18:29 2017
TYPE : TOUR
DIMENSION : 101
TOUR_SECTION
1
86
16
58
24
25
8
57
19
34
59
21
89
52
46
32
17
33
50
26
70
28
22
60
83
20
77
79
56
11
51
40
43
90
54
29
6
99
3
95
97
85
93
12
15
18
49
27
10
88
36
76
62
98
38
94
72
65
7
87
74
5
100
45
2
41
73
66
53
30
69
78
80
37
91
67
55
23
82
14
48
31
81
71
9
64
35
61
4
47
84
68
63
13
39
44
75
92
101
96
42
-1
EOF
